p cnf 621 458
c p distribution  0.875 0.125
c p distribution  0.875 0.125
c p distribution  0.875 0.125
c p distribution  0.875 0.125
c p distribution  0.875 0.125
c p distribution  0.875 0.125
c p distribution  0.875 0.125
c p distribution  0.875 0.125
c p distribution  0.875 0.125
c p distribution  0.875 0.125
c p distribution  0.875 0.125
c p distribution  0.875 0.125
c p distribution  0.875 0.125
c p distribution  0.875 0.125
c p distribution  0.875 0.125
c p distribution  0.875 0.125
c p distribution  0.875 0.125
c p distribution  0.875 0.125
c p distribution  0.875 0.125
c p distribution  0.875 0.125
c p distribution  0.875 0.125
c p distribution  0.875 0.125
c p distribution  0.875 0.125
c p distribution  0.875 0.125
c p distribution  0.875 0.125
c p distribution  0.875 0.125
c p distribution  0.875 0.125
c p distribution  0.875 0.125
c p distribution  0.875 0.125
c p distribution  0.875 0.125
c p distribution  0.875 0.125
c p distribution  0.875 0.125
c p distribution  0.875 0.125
c p distribution  0.875 0.125
c p distribution  0.875 0.125
c p distribution  0.875 0.125
c p distribution  0.875 0.125
c p distribution  0.875 0.125
c p distribution  0.875 0.125
c p distribution  0.875 0.125
c p distribution  0.875 0.125
c p distribution  0.875 0.125
c p distribution  0.875 0.125
c p distribution  0.875 0.125
c p distribution  0.875 0.125
c p distribution  0.875 0.125
c p distribution  0.875 0.125
c p distribution  0.875 0.125
c p distribution  0.875 0.125
c p distribution  0.875 0.125
c p distribution  0.875 0.125
c p distribution  0.875 0.125
c p distribution  0.875 0.125
c p distribution  0.875 0.125
c p distribution  0.875 0.125
c p distribution  0.875 0.125
c p distribution  0.875 0.125
c p distribution  0.875 0.125
c p distribution  0.875 0.125
c p distribution  0.875 0.125
c p distribution  0.875 0.125
c p distribution  0.875 0.125
c p distribution  0.875 0.125
c p distribution  0.875 0.125
c p distribution  0.875 0.125
c p distribution  0.875 0.125
c p distribution  0.875 0.125
c p distribution  0.875 0.125
c p distribution  0.875 0.125
c p distribution  0.875 0.125
c p distribution  0.875 0.125
c p distribution  0.875 0.125
c p distribution  0.875 0.125
c p distribution  0.875 0.125
c p distribution  0.875 0.125
c p distribution  0.875 0.125
c p distribution  0.875 0.125
c p distribution  0.875 0.125
c p distribution  0.875 0.125
c p distribution  0.875 0.125
c p distribution  0.875 0.125
c p distribution  0.875 0.125
c p distribution  0.875 0.125
c p distribution  0.875 0.125
c p distribution  0.875 0.125
c p distribution  0.875 0.125
c p distribution  0.875 0.125
c p distribution  0.875 0.125
c p distribution  0.875 0.125
c p distribution  0.875 0.125
c p distribution  0.875 0.125
c p distribution  0.875 0.125
c p distribution  0.875 0.125
c p distribution  0.875 0.125
c p distribution  0.875 0.125
c p distribution  0.875 0.125
c p distribution  0.875 0.125
c p distribution  0.875 0.125
c p distribution  0.875 0.125
c p distribution  0.875 0.125
c p distribution  0.875 0.125
c p distribution  0.875 0.125
c p distribution  0.875 0.125
c p distribution  0.875 0.125
c p distribution  0.875 0.125
c p distribution  0.875 0.125
c p distribution  0.875 0.125
c p distribution  0.875 0.125
c p distribution  0.875 0.125
c p distribution  0.875 0.125
c p distribution  0.875 0.125
c p distribution  0.875 0.125
c p distribution  0.875 0.125
c p distribution  0.875 0.125
c p distribution  0.875 0.125
c p distribution  0.875 0.125
c p distribution  0.875 0.125
c p distribution  0.875 0.125
c p distribution  0.875 0.125
c p distribution  0.875 0.125
c p distribution  0.875 0.125
c p distribution  0.875 0.125
c p distribution  0.875 0.125
c p distribution  0.875 0.125
c p distribution  0.875 0.125
c p distribution  0.875 0.125
c p distribution  0.875 0.125
c p distribution  0.875 0.125
c p distribution  0.875 0.125
c p distribution  0.875 0.125
c p distribution  0.875 0.125
c p distribution  0.875 0.125
c p distribution  0.875 0.125
c p distribution  0.875 0.125
c p distribution  0.875 0.125
c p distribution  0.875 0.125
c p distribution  0.875 0.125
c p distribution  0.875 0.125
c p distribution  0.875 0.125
c p distribution  0.875 0.125
c p distribution  0.875 0.125
c p distribution  0.875 0.125
c p distribution  0.875 0.125
c p distribution  0.875 0.125
c p distribution  0.875 0.125
c p distribution  0.875 0.125
c p distribution  0.875 0.125
c p distribution  0.875 0.125
c p distribution  0.875 0.125
c p distribution  0.875 0.125
c p distribution  0.875 0.125
c p distribution  0.875 0.125
c p distribution  0.875 0.125
c p distribution  0.875 0.125
c p distribution  0.875 0.125
c p distribution  0.875 0.125
c p distribution  0.875 0.125
c p distribution  0.875 0.125
c p distribution  0.875 0.125
c p distribution  0.875 0.125
c p distribution  0.875 0.125
c p distribution  0.875 0.125
c p distribution  0.875 0.125
c p distribution  0.875 0.125
c p distribution  0.875 0.125
c p distribution  0.875 0.125
c p distribution  0.875 0.125
c p distribution  0.875 0.125
c p distribution  0.875 0.125
c p distribution  0.875 0.125
c p distribution  0.875 0.125
c p distribution  0.875 0.125
c p distribution  0.875 0.125
c p distribution  0.875 0.125
c p distribution  0.875 0.125
c p distribution  0.875 0.125
c p distribution  0.875 0.125
c p distribution  0.875 0.125
c p distribution  0.875 0.125
c p distribution  0.875 0.125
c p distribution  0.875 0.125
c p distribution  0.875 0.125
c p distribution  0.875 0.125
c p distribution  0.875 0.125
c p distribution  0.875 0.125
c p distribution  0.875 0.125
c p distribution  0.875 0.125
c p distribution  0.875 0.125
c p distribution  0.875 0.125
c p distribution  0.875 0.125
c p distribution  0.875 0.125
c p distribution  0.875 0.125
c p distribution  0.875 0.125
c p distribution  0.875 0.125
c p distribution  0.875 0.125
c p distribution  0.875 0.125
c p distribution  0.875 0.125
c p distribution  0.875 0.125
c p distribution  0.875 0.125
c p distribution  0.875 0.125
c p distribution  0.875 0.125
c p distribution  0.875 0.125
c p distribution  0.875 0.125
c p distribution  0.875 0.125
c p distribution  0.875 0.125
c p distribution  0.875 0.125
c p distribution  0.875 0.125
c p distribution  0.875 0.125
c p distribution  0.875 0.125
c p distribution  0.875 0.125
c p distribution  0.875 0.125
c p distribution  0.875 0.125
c p distribution  0.875 0.125
c p distribution  0.875 0.125
c p distribution  0.875 0.125
c p distribution  0.875 0.125
c p distribution  0.875 0.125
c p distribution  0.875 0.125
c p distribution  0.875 0.125
c p distribution  0.875 0.125
c p distribution  0.875 0.125
c p distribution  0.875 0.125
c p distribution  0.875 0.125
c p distribution  0.875 0.125
c p distribution  0.875 0.125
c p distribution  0.875 0.125
c p distribution  0.875 0.125
c p distribution  0.875 0.125
501 0
-603 0
556 -503 -1 0
503 -556 -1 0
472 -547 -3 0
547 -472 -3 0
541 -479 -5 0
479 -541 -5 0
536 -458 -7 0
458 -536 -7 0
492 -487 -9 0
487 -492 -9 0
602 -594 -11 0
594 -602 -11 0
608 -536 -13 0
536 -608 -13 0
525 -534 -15 0
534 -525 -15 0
514 -460 -17 0
460 -514 -17 0
479 -539 -19 0
539 -479 -19 0
484 -560 -21 0
560 -484 -21 0
604 -457 -23 0
457 -604 -23 0
526 -590 -25 0
590 -526 -25 0
535 -555 -27 0
555 -535 -27 0
545 -570 -29 0
570 -545 -29 0
493 -510 -31 0
510 -493 -31 0
565 -504 -33 0
504 -565 -33 0
514 -470 -35 0
470 -514 -35 0
532 -508 -37 0
508 -532 -37 0
477 -489 -39 0
489 -477 -39 0
574 -616 -41 0
616 -574 -41 0
609 -461 -43 0
461 -609 -43 0
490 -486 -45 0
486 -490 -45 0
561 -475 -47 0
475 -561 -47 0
560 -525 -49 0
525 -560 -49 0
514 -564 -51 0
564 -514 -51 0
518 -545 -53 0
545 -518 -53 0
499 -603 -55 0
603 -499 -55 0
599 -505 -57 0
505 -599 -57 0
587 -575 -59 0
575 -587 -59 0
473 -568 -61 0
568 -473 -61 0
504 -501 -63 0
501 -504 -63 0
540 -459 -65 0
459 -540 -65 0
494 -538 -67 0
538 -494 -67 0
541 -615 -69 0
615 -541 -69 0
573 -550 -71 0
550 -573 -71 0
556 -585 -73 0
585 -556 -73 0
565 -556 -75 0
556 -565 -75 0
579 -575 -77 0
575 -579 -77 0
582 -504 -79 0
504 -582 -79 0
482 -562 -81 0
562 -482 -81 0
479 -539 -83 0
539 -479 -83 0
477 -529 -85 0
529 -477 -85 0
460 -502 -87 0
502 -460 -87 0
550 -575 -89 0
575 -550 -89 0
618 -508 -91 0
508 -618 -91 0
479 -539 -93 0
539 -479 -93 0
526 -463 -95 0
463 -526 -95 0
483 -510 -97 0
510 -483 -97 0
477 -529 -99 0
529 -477 -99 0
580 -462 -101 0
462 -580 -101 0
495 -476 -103 0
476 -495 -103 0
495 -594 -105 0
594 -495 -105 0
509 -477 -107 0
477 -509 -107 0
621 -527 -109 0
527 -621 -109 0
556 -580 -111 0
580 -556 -111 0
566 -496 -113 0
496 -566 -113 0
479 -539 -115 0
539 -479 -115 0
558 -549 -117 0
549 -558 -117 0
611 -524 -119 0
524 -611 -119 0
536 -570 -121 0
570 -536 -121 0
544 -492 -123 0
492 -544 -123 0
574 -483 -125 0
483 -574 -125 0
588 -469 -127 0
469 -588 -127 0
548 -612 -129 0
612 -548 -129 0
477 -563 -131 0
563 -477 -131 0
548 -566 -133 0
566 -548 -133 0
577 -518 -135 0
518 -577 -135 0
594 -586 -137 0
586 -594 -137 0
474 -517 -139 0
517 -474 -139 0
481 -577 -141 0
577 -481 -141 0
482 -487 -143 0
487 -482 -143 0
536 -516 -145 0
516 -536 -145 0
565 -557 -147 0
557 -565 -147 0
598 -522 -149 0
522 -598 -149 0
597 -487 -151 0
487 -597 -151 0
591 -544 -153 0
544 -591 -153 0
488 -458 -155 0
458 -488 -155 0
518 -595 -157 0
595 -518 -157 0
578 -524 -159 0
524 -578 -159 0
491 -609 -161 0
609 -491 -161 0
614 -461 -163 0
461 -614 -163 0
604 -531 -165 0
531 -604 -165 0
582 -504 -167 0
504 -582 -167 0
490 -486 -169 0
486 -490 -169 0
596 -476 -171 0
476 -596 -171 0
533 -508 -173 0
508 -533 -173 0
491 -476 -175 0
476 -491 -175 0
548 -526 -177 0
526 -548 -177 0
569 -521 -179 0
521 -569 -179 0
492 -482 -181 0
482 -492 -181 0
473 -568 -183 0
568 -473 -183 0
549 -553 -185 0
553 -549 -185 0
588 -568 -187 0
568 -588 -187 0
481 -577 -189 0
577 -481 -189 0
544 -478 -191 0
478 -544 -191 0
490 -559 -193 0
559 -490 -193 0
525 -468 -195 0
468 -525 -195 0
504 -467 -197 0
467 -504 -197 0
534 -464 -199 0
464 -534 -199 0
604 -526 -201 0
526 -604 -201 0
507 -561 -203 0
561 -507 -203 0
541 -615 -205 0
615 -541 -205 0
608 -557 -207 0
557 -608 -207 0
514 -611 -209 0
611 -514 -209 0
481 -480 -211 0
480 -481 -211 0
461 -548 -213 0
548 -461 -213 0
591 -600 -215 0
600 -591 -215 0
514 -610 -217 0
610 -514 -217 0
561 -509 -219 0
509 -561 -219 0
495 -491 -221 0
491 -495 -221 0
582 -620 -223 0
620 -582 -223 0
477 -511 -225 0
511 -477 -225 0
618 -603 -227 0
603 -618 -227 0
520 -530 -229 0
530 -520 -229 0
523 -552 -231 0
552 -523 -231 0
544 -512 -233 0
512 -544 -233 0
478 -505 -235 0
505 -478 -235 0
565 -608 -237 0
608 -565 -237 0
552 -566 -239 0
566 -552 -239 0
545 -519 -241 0
519 -545 -241 0
494 -538 -243 0
538 -494 -243 0
551 -519 -245 0
519 -551 -245 0
582 -467 -247 0
467 -582 -247 0
591 -586 -249 0
586 -591 -249 0
565 -504 -251 0
504 -565 -251 0
465 -496 -253 0
496 -465 -253 0
545 -536 -255 0
536 -545 -255 0
497 -550 -257 0
550 -497 -257 0
591 -602 -259 0
602 -591 -259 0
540 -459 -261 0
459 -540 -261 0
500 -516 -263 0
516 -500 -263 0
523 -464 -265 0
464 -523 -265 0
506 -547 -267 0
547 -506 -267 0
618 -603 -269 0
603 -618 -269 0
577 -518 -271 0
518 -577 -271 0
562 -526 -273 0
526 -562 -273 0
529 -509 -275 0
509 -529 -275 0
473 -457 -277 0
457 -473 -277 0
498 -515 -279 0
515 -498 -279 0
610 -573 -281 0
573 -610 -281 0
493 -466 -283 0
466 -493 -283 0
528 -478 -285 0
478 -528 -285 0
547 -511 -287 0
511 -547 -287 0
570 -458 -289 0
458 -570 -289 0
581 -489 -291 0
489 -581 -291 0
591 -592 -293 0
592 -591 -293 0
565 -500 -295 0
500 -565 -295 0
539 -582 -297 0
582 -539 -297 0
539 -582 -299 0
582 -539 -299 0
466 -491 -301 0
491 -466 -301 0
618 -552 -303 0
552 -618 -303 0
606 -580 -305 0
580 -606 -305 0
543 -621 -307 0
621 -543 -307 0
614 -609 -309 0
609 -614 -309 0
482 -546 -311 0
546 -482 -311 0
462 -572 -313 0
572 -462 -313 0
574 -616 -315 0
616 -574 -315 0
583 -601 -317 0
601 -583 -317 0
583 -589 -319 0
589 -583 -319 0
468 -492 -321 0
492 -468 -321 0
494 -530 -323 0
530 -494 -323 0
494 -530 -325 0
530 -494 -325 0
548 -517 -327 0
517 -548 -327 0
557 -503 -329 0
503 -557 -329 0
562 -548 -331 0
548 -562 -331 0
571 -545 -333 0
545 -571 -333 0
558 -549 -335 0
549 -558 -335 0
611 -578 -337 0
578 -611 -337 0
485 -511 -339 0
511 -485 -339 0
548 -491 -341 0
491 -548 -341 0
545 -519 -343 0
519 -545 -343 0
500 -536 -345 0
536 -500 -345 0
582 -578 -347 0
578 -582 -347 0
569 -535 -349 0
535 -569 -349 0
537 -593 -351 0
593 -537 -351 0
492 -555 -353 0
555 -492 -353 0
484 -555 -355 0
555 -484 -355 0
541 -479 -357 0
479 -541 -357 0
490 -569 -359 0
569 -490 -359 0
604 -526 -361 0
526 -604 -361 0
565 -501 -363 0
501 -565 -363 0
565 -504 -365 0
504 -565 -365 0
591 -602 -367 0
602 -591 -367 0
539 -582 -369 0
582 -539 -369 0
613 -585 -371 0
585 -613 -371 0
512 -486 -373 0
486 -512 -373 0
510 -483 -375 0
483 -510 -375 0
514 -527 -377 0
527 -514 -377 0
590 -597 -379 0
597 -590 -379 0
548 -517 -381 0
517 -548 -381 0
571 -595 -383 0
595 -571 -383 0
571 -595 -385 0
595 -571 -385 0
525 -464 -387 0
464 -525 -387 0
479 -459 -389 0
459 -479 -389 0
571 -545 -391 0
545 -571 -391 0
598 -470 -393 0
470 -598 -393 0
495 -586 -395 0
586 -495 -395 0
482 -601 -397 0
601 -482 -397 0
542 -572 -399 0
572 -542 -399 0
590 -597 -401 0
597 -590 -401 0
567 -496 -403 0
496 -567 -403 0
467 -501 -405 0
501 -467 -405 0
484 -534 -407 0
534 -484 -407 0
593 -617 -409 0
617 -593 -409 0
605 -532 -411 0
532 -605 -411 0
551 -616 -413 0
616 -551 -413 0
543 -472 -415 0
472 -543 -415 0
514 -611 -417 0
611 -514 -417 0
584 -462 -419 0
462 -584 -419 0
557 -516 -421 0
516 -557 -421 0
574 -483 -423 0
483 -574 -423 0
491 -538 -425 0
538 -491 -425 0
504 -524 -427 0
524 -504 -427 0
520 -480 -429 0
480 -520 -429 0
606 -470 -431 0
470 -606 -431 0
539 -620 -433 0
620 -539 -433 0
582 -504 -435 0
504 -582 -435 0
613 -515 -437 0
515 -613 -437 0
468 -553 -439 0
553 -468 -439 0
514 -593 -441 0
593 -514 -441 0
607 -583 -443 0
583 -607 -443 0
502 -498 -445 0
498 -502 -445 0
471 -585 -447 0
585 -471 -447 0
607 -589 -449 0
589 -607 -449 0
520 -530 -451 0
530 -520 -451 0
544 -505 -453 0
505 -544 -453 0
465 -532 -455 0
532 -465 -455 0

